certificates/rado_a10_c14_N45.cnf
c Rad2 upper bound instance: x1 + 10*x2 - x3 = 14, interval [1,45]
p cnf 45 274
1 2 7 0
-1 -2 -7 0
1 3 17 0
-1 -3 -17 0
1 4 27 0
-1 -4 -27 0
1 5 37 0
-1 -5 -37 0
2 8 0
-2 -8 0
2 3 18 0
-2 -3 -18 0
2 4 28 0
-2 -4 -28 0
2 5 38 0
-2 -5 -38 0
2 3 9 0
-2 -3 -9 0
3 19 0
-3 -19 0
3 4 29 0
-3 -4 -29 0
3 5 39 0
-3 -5 -39 0
2 4 10 0
-2 -4 -10 0
3 4 20 0
-3 -4 -20 0
4 30 0
-4 -30 0
4 5 40 0
-4 -5 -40 0
1 5 0
-1 -5 0
2 5 11 0
-2 -5 -11 0
3 5 21 0
-3 -5 -21 0
4 5 31 0
-4 -5 -31 0
5 41 0
-5 -41 0
1 2 6 0
-1 -2 -6 0
2 6 12 0
-2 -6 -12 0
3 6 22 0
-3 -6 -22 0
4 6 32 0
-4 -6 -32 0
5 6 42 0
-5 -6 -42 0
1 3 7 0
-1 -3 -7 0
2 7 13 0
-2 -7 -13 0
3 7 23 0
-3 -7 -23 0
4 7 33 0
-4 -7 -33 0
5 7 43 0
-5 -7 -43 0
1 4 8 0
-1 -4 -8 0
2 8 14 0
-2 -8 -14 0
3 8 24 0
-3 -8 -24 0
4 8 34 0
-4 -8 -34 0
5 8 44 0
-5 -8 -44 0
1 5 9 0
-1 -5 -9 0
2 9 15 0
-2 -9 -15 0
3 9 25 0
-3 -9 -25 0
4 9 35 0
-4 -9 -35 0
5 9 45 0
-5 -9 -45 0
1 6 10 0
-1 -6 -10 0
2 10 16 0
-2 -10 -16 0
3 10 26 0
-3 -10 -26 0
4 10 36 0
-4 -10 -36 0
1 7 11 0
-1 -7 -11 0
2 11 17 0
-2 -11 -17 0
3 11 27 0
-3 -11 -27 0
4 11 37 0
-4 -11 -37 0
1 8 12 0
-1 -8 -12 0
2 12 18 0
-2 -12 -18 0
3 12 28 0
-3 -12 -28 0
4 12 38 0
-4 -12 -38 0
1 9 13 0
-1 -9 -13 0
2 13 19 0
-2 -13 -19 0
3 13 29 0
-3 -13 -29 0
4 13 39 0
-4 -13 -39 0
1 10 14 0
-1 -10 -14 0
2 14 20 0
-2 -14 -20 0
3 14 30 0
-3 -14 -30 0
4 14 40 0
-4 -14 -40 0
1 11 15 0
-1 -11 -15 0
2 15 21 0
-2 -15 -21 0
3 15 31 0
-3 -15 -31 0
4 15 41 0
-4 -15 -41 0
1 12 16 0
-1 -12 -16 0
2 16 22 0
-2 -16 -22 0
3 16 32 0
-3 -16 -32 0
4 16 42 0
-4 -16 -42 0
1 13 17 0
-1 -13 -17 0
2 17 23 0
-2 -17 -23 0
3 17 33 0
-3 -17 -33 0
4 17 43 0
-4 -17 -43 0
1 14 18 0
-1 -14 -18 0
2 18 24 0
-2 -18 -24 0
3 18 34 0
-3 -18 -34 0
4 18 44 0
-4 -18 -44 0
1 15 19 0
-1 -15 -19 0
2 19 25 0
-2 -19 -25 0
3 19 35 0
-3 -19 -35 0
4 19 45 0
-4 -19 -45 0
1 16 20 0
-1 -16 -20 0
2 20 26 0
-2 -20 -26 0
3 20 36 0
-3 -20 -36 0
1 17 21 0
-1 -17 -21 0
2 21 27 0
-2 -21 -27 0
3 21 37 0
-3 -21 -37 0
1 18 22 0
-1 -18 -22 0
2 22 28 0
-2 -22 -28 0
3 22 38 0
-3 -22 -38 0
1 19 23 0
-1 -19 -23 0
2 23 29 0
-2 -23 -29 0
3 23 39 0
-3 -23 -39 0
1 20 24 0
-1 -20 -24 0
2 24 30 0
-2 -24 -30 0
3 24 40 0
-3 -24 -40 0
1 21 25 0
-1 -21 -25 0
2 25 31 0
-2 -25 -31 0
3 25 41 0
-3 -25 -41 0
1 22 26 0
-1 -22 -26 0
2 26 32 0
-2 -26 -32 0
3 26 42 0
-3 -26 -42 0
1 23 27 0
-1 -23 -27 0
2 27 33 0
-2 -27 -33 0
3 27 43 0
-3 -27 -43 0
1 24 28 0
-1 -24 -28 0
2 28 34 0
-2 -28 -34 0
3 28 44 0
-3 -28 -44 0
1 25 29 0
-1 -25 -29 0
2 29 35 0
-2 -29 -35 0
3 29 45 0
-3 -29 -45 0
1 26 30 0
-1 -26 -30 0
2 30 36 0
-2 -30 -36 0
1 27 31 0
-1 -27 -31 0
2 31 37 0
-2 -31 -37 0
1 28 32 0
-1 -28 -32 0
2 32 38 0
-2 -32 -38 0
1 29 33 0
-1 -29 -33 0
2 33 39 0
-2 -33 -39 0
1 30 34 0
-1 -30 -34 0
2 34 40 0
-2 -34 -40 0
1 31 35 0
-1 -31 -35 0
2 35 41 0
-2 -35 -41 0
1 32 36 0
-1 -32 -36 0
2 36 42 0
-2 -36 -42 0
1 33 37 0
-1 -33 -37 0
2 37 43 0
-2 -37 -43 0
1 34 38 0
-1 -34 -38 0
2 38 44 0
-2 -38 -44 0
1 35 39 0
-1 -35 -39 0
2 39 45 0
-2 -39 -45 0
1 36 40 0
-1 -36 -40 0
1 37 41 0
-1 -37 -41 0
1 38 42 0
-1 -38 -42 0
1 39 43 0
-1 -39 -43 0
1 40 44 0
-1 -40 -44 0
1 41 45 0
-1 -41 -45 0
