certificates/rado_a10_c14_N45.drat
-41 -45 0
1 8 0
d 12 1 8 0
-45 0
-5 0
1 0
41 0
9 0
-37 0
-13 0
-2 0
8 0
38 0
11 0
7 0
19 0
31 0
43 0
39 0
-12 0
-4 0
-42 0
-34 0
-15 0
0
